* #variable= 32 #constraint= 273
* 
* PROBLEM DATA
* ------------
* Network file:      /home/anna/projects/SBG-bounds/input/SBG.edges
* Number of nodes:   32
* Number of edges:   90
* Budget:            10
* 
* 
* REPRODUCIBILITY INFO
* --------------------
* Python version:    3.12.1 | packaged by Anaconda, Inc. | (main, Jan 19 2024, 15:43:47) [GCC 11.2.0]
* Networkx version:  3.1
* Date (YYYY-MM-DD): 2024-07-18
* Repository:        git@github.com:latower/SBG-bounds.git
* Branch:            main
* Commit:            3cd30f72630e07474cd1538040a3586855279321
* Machine:           lizard
* 
* node       idx
* --------------
* p11          1
* h21          2
* h22          3
* h23          4
* h24          5
* h25          6
* p35          7
* h31          8
* p31          9
* h32         10
* p32         11
* h33         12
* p33         13
* h34         14
* p34         15
* h35         16
* h45         17
* p41         18
* h41         19
* p42         20
* h42         21
* p43         22
* h43         23
* p44         24
* h44         25
* p45         26
* h55         27
* h51         28
* h52         29
* h53         30
* h54         31
* p61         32
* 
+1 x18 +1 x20 +1 x23 +1 x12 +1 x21 +1 x22 +1 x27 +1 x19 +1 x30 +1 x28 +1 x32 >= 1 ;
+1 x23 +1 x10 +1 x20 +1 x21 +1 x14 +1 x11 +1 x29 +1 x24 +1 x30 +1 x13 >= 1 ;
+1 x11 +1 x23 +1 x10 +1 x20 +1 x30 >= 1 ;
+1 x6 +1 x23 +1 x12 +1 x5 +1 x3 +1 x1 +1 x21 +1 x22 +1 x11 +1 x2 +1 x13 >= 1 ;
+1 x18 +1 x6 +1 x17 +1 x5 +1 x1 +1 x16 +1 x9 +1 x8 +1 x15 +1 x19 >= 1 ;
+1 x18 +1 x17 +1 x27 +1 x8 +1 x19 +1 x28 >= 1 ;
+1 x4 +1 x23 +1 x12 +1 x3 +1 x1 +1 x25 +1 x14 +1 x11 +1 x24 +1 x15 >= 1 ;
+1 x4 +1 x12 +1 x5 +1 x21 +1 x22 +1 x25 +1 x14 +1 x11 +1 x24 +1 x15 >= 1 ;
+1 x23 +1 x12 +1 x10 +1 x21 +1 x3 +1 x22 +1 x1 +1 x9 +1 x2 +1 x13 >= 1 ;
+1 x6 +1 x23 +1 x12 +1 x5 +1 x21 +1 x1 +1 x22 +1 x14 +1 x11 +1 x15 >= 1 ;
+1 x6 +1 x3 +1 x1 +1 x7 +1 x9 +1 x2 +1 x8 >= 1 ;
+1 x18 +1 x20 +1 x10 +1 x31 +1 x30 +1 x9 +1 x27 +1 x29 +1 x8 +1 x19 +1 x32 >= 1 ;
+1 x18 +1 x17 +1 x26 +1 x7 +1 x16 +1 x27 +1 x8 >= 1 ;
+1 x4 +1 x17 +1 x5 +1 x3 +1 x1 +1 x16 +1 x7 +1 x8 >= 1 ;
+1 x23 +1 x20 +1 x10 +1 x31 +1 x21 +1 x22 +1 x30 +1 x24 +1 x19 +1 x28 +1 x32 >= 1 ;
+1 x18 +1 x20 +1 x10 +1 x17 +1 x21 +1 x27 +1 x29 +1 x8 >= 1 ;
+1 x18 +1 x20 +1 x17 +1 x30 +1 x21 +1 x22 +1 x27 +1 x29 +1 x8 +1 x19 +1 x32 >= 1 ;
+1 x11 +1 x9 +1 x29 +1 x3 +1 x28 >= 1 ;
+1 x4 +1 x6 +1 x12 +1 x3 +1 x16 +1 x7 +1 x11 +1 x2 +1 x15 +1 x13 >= 1 ;
+1 x20 +1 x12 +1 x3 +1 x21 +1 x22 +1 x11 +1 x9 +1 x2 +1 x29 +1 x8 +1 x19 >= 1 ;
+1 x31 +1 x26 +1 x25 +1 x27 +1 x24 +1 x30 +1 x32 >= 1 ;
+1 x20 +1 x17 +1 x19 +1 x26 +1 x29 +1 x31 >= 1 ;
+1 x18 +1 x10 +1 x27 +1 x21 +1 x32 >= 1 ;
+1 x4 +1 x23 +1 x12 +1 x5 +1 x14 +1 x13 >= 1 ;
+1 x4 +1 x12 +1 x5 +1 x31 +1 x25 +1 x24 +1 x30 +1 x13 >= 1 ;
+1 x18 +1 x17 +1 x26 +1 x31 +1 x16 +1 x7 +1 x29 +1 x8 +1 x30 +1 x28 +1 x32 >= 1 ;
+1 x20 +1 x17 +1 x7 +1 x9 +1 x27 +1 x2 +1 x29 +1 x8 +1 x28 +1 x32 >= 1 ;
+1 x4 +1 x20 +1 x10 +1 x12 +1 x3 +1 x22 +1 x11 +1 x29 +1 x30 +1 x28 +1 x32 >= 1 ;
+1 x18 +1 x6 +1 x17 +1 x26 +1 x3 +1 x1 +1 x16 +1 x9 +1 x27 +1 x2 >= 1 ;
+1 x4 +1 x9 +1 x5 +1 x8 +1 x7 >= 1 ;
+1 x14 +1 x2 +1 x1 +1 x7 +1 x25 >= 1 ;
+1 x9 +1 x27 +1 x2 +1 x26 +1 x19 +1 x16 >= 1 ;
+1 x6 +1 x27 +1 x31 +1 x15 +1 x7 >= 1 ;
+1 x4 +1 x23 +1 x12 +1 x21 +1 x22 +1 x11 +1 x13 >= 1 ;
+1 x9 +1 x20 +1 x10 +1 x27 +1 x17 >= 1 ;
+1 x6 +1 x10 +1 x12 +1 x5 +1 x21 +1 x1 +1 x11 +1 x2 >= 1 ;
+1 x18 +1 x6 +1 x7 +1 x16 +1 x27 +1 x2 +1 x19 +1 x28 >= 1 ;
+1 x4 +1 x12 +1 x24 +1 x15 +1 x25 >= 1 ;
+1 x18 +1 x27 +1 x19 +1 x21 +1 x22 +1 x30 >= 1 ;
+1 x23 +1 x31 +1 x25 +1 x14 +1 x24 +1 x30 >= 1 ;
+1 x18 +1 x4 +1 x10 +1 x17 +1 x3 +1 x1 +1 x7 +1 x11 +1 x8 +1 x19 >= 1 ;
+1 x23 +1 x12 +1 x22 +1 x14 +1 x24 +1 x30 +1 x13 >= 1 ;
+1 x23 +1 x10 +1 x12 +1 x5 +1 x3 +1 x1 +1 x14 +1 x11 +1 x9 +1 x2 +1 x13 >= 1 ;
+1 x4 +1 x23 +1 x10 +1 x3 +1 x21 +1 x22 +1 x14 +1 x11 +1 x24 +1 x30 +1 x13 >= 1 ;
+1 x4 +1 x5 +1 x21 +1 x22 +1 x14 +1 x29 +1 x30 +1 x13 >= 1 ;
+1 x23 +1 x17 +1 x26 +1 x16 +1 x14 +1 x27 +1 x24 +1 x30 >= 1 ;
+1 x6 +1 x17 +1 x26 +1 x31 +1 x7 +1 x25 +1 x14 +1 x2 +1 x24 +1 x15 +1 x8 >= 1 ;
+1 x18 +1 x26 +1 x31 +1 x16 +1 x25 +1 x8 +1 x19 +1 x28 >= 1 ;
+1 x6 +1 x17 +1 x5 +1 x26 +1 x31 +1 x14 +1 x27 +1 x15 >= 1 ;
+1 x14 +1 x27 +1 x17 +1 x24 +1 x15 >= 1 ;
+1 x26 +1 x8 +1 x32 +1 x19 +1 x31 >= 1 ;
+1 x9 +1 x5 +1 x3 +1 x15 +1 x8 +1 x16 >= 1 ;
+1 x18 +1 x17 +1 x26 +1 x31 +1 x25 +1 x30 +1 x24 +1 x8 +1 x19 +1 x28 +1 x32 >= 1 ;
+1 x4 +1 x23 +1 x5 +1 x3 +1 x1 +1 x22 +1 x14 +1 x11 +1 x24 +1 x30 >= 1 ;
+1 x18 +1 x10 +1 x12 +1 x21 +1 x22 +1 x11 +1 x27 +1 x19 +1 x28 +1 x32 >= 1 ;
+1 x4 +1 x10 +1 x20 +1 x23 +1 x5 +1 x21 +1 x22 +1 x14 +1 x11 +1 x29 +1 x13 >= 1 ;
+1 x6 +1 x17 +1 x7 +1 x16 +1 x2 +1 x8 >= 1 ;
+1 x18 +1 x17 +1 x7 +1 x9 +1 x2 +1 x8 +1 x19 >= 1 ;
+1 x4 +1 x23 +1 x12 +1 x10 +1 x20 +1 x3 +1 x22 +1 x9 +1 x19 +1 x13 >= 1 ;
+1 x6 +1 x5 +1 x1 +1 x7 +1 x16 +1 x2 +1 x15 >= 1 ;
+1 x18 +1 x6 +1 x27 +1 x8 +1 x15 +1 x25 >= 1 ;
+1 x18 +1 x10 +1 x17 +1 x3 +1 x9 +1 x27 +1 x2 +1 x28 >= 1 ;
+1 x18 +1 x20 +1 x17 +1 x26 +1 x31 +1 x21 +1 x22 +1 x27 +1 x29 +1 x30 >= 1 ;
+1 x18 +1 x6 +1 x17 +1 x3 +1 x1 +1 x19 >= 1 ;
+1 x17 +1 x5 +1 x8 +1 x1 +1 x15 >= 1 ;
+1 x18 +1 x20 +1 x17 +1 x26 +1 x31 +1 x16 +1 x25 +1 x29 +1 x19 +1 x28 +1 x32 >= 1 ;
+1 x4 +1 x10 +1 x20 +1 x12 +1 x5 +1 x21 +1 x1 +1 x9 +1 x19 +1 x13 >= 1 ;
+1 x18 +1 x20 +1 x10 +1 x9 +1 x8 +1 x19 +1 x28 >= 1 ;
+1 x18 +1 x17 +1 x26 +1 x31 +1 x27 +1 x28 +1 x32 >= 1 ;
+1 x14 +1 x24 +1 x29 +1 x21 +1 x13 >= 1 ;
+1 x23 +1 x26 +1 x22 +1 x16 +1 x25 +1 x14 +1 x29 +1 x15 +1 x30 +1 x32 >= 1 ;
+1 x14 +1 x6 +1 x17 +1 x31 +1 x24 +1 x7 >= 1 ;
+1 x4 +1 x6 +1 x23 +1 x5 +1 x31 +1 x1 +1 x25 +1 x24 +1 x15 +1 x30 +1 x13 >= 1 ;
+1 x4 +1 x6 +1 x10 +1 x17 +1 x3 +1 x1 +1 x16 +1 x7 +1 x11 +1 x9 +1 x8 >= 1 ;
+1 x20 +1 x10 +1 x31 +1 x21 +1 x27 +1 x30 +1 x19 +1 x32 >= 1 ;
+1 x6 +1 x23 +1 x12 +1 x1 +1 x15 >= 1 ;
+1 x6 +1 x23 +1 x17 +1 x5 +1 x26 +1 x16 +1 x7 +1 x14 +1 x24 +1 x13 >= 1 ;
+1 x4 +1 x10 +1 x3 +1 x1 +1 x11 +1 x9 +1 x2 >= 1 ;
+1 x23 +1 x10 +1 x5 +1 x3 +1 x21 +1 x14 +1 x11 +1 x13 >= 1 ;
+1 x4 +1 x11 +1 x8 +1 x1 +1 x19 >= 1 ;
+1 x11 +1 x6 +1 x10 +1 x9 +1 x5 >= 1 ;
+1 x6 +1 x5 +1 x26 +1 x24 +1 x31 >= 1 ;
+1 x20 +1 x23 +1 x12 +1 x28 +1 x32 >= 1 ;
+1 x4 +1 x6 +1 x23 +1 x3 +1 x1 +1 x25 +1 x14 +1 x2 +1 x24 +1 x15 +1 x13 >= 1 ;
+1 x4 +1 x20 +1 x12 +1 x3 +1 x1 +1 x21 +1 x22 +1 x9 +1 x2 +1 x29 >= 1 ;
+1 x6 +1 x23 +1 x24 +1 x13 +1 x16 >= 1 ;
+1 x4 +1 x6 +1 x23 +1 x12 +1 x1 +1 x16 +1 x7 +1 x14 +1 x2 +1 x15 +1 x13 >= 1 ;
+1 x4 +1 x6 +1 x23 +1 x24 +1 x1 +1 x25 >= 1 ;
+1 x4 +1 x20 +1 x23 +1 x12 +1 x28 +1 x11 +1 x29 +1 x30 +1 x13 +1 x32 >= 1 ;
+1 x21 +1 x23 +1 x5 +1 x3 +1 x1 +1 x22 >= 1 ;
+1 x4 +1 x23 +1 x5 +1 x3 +1 x1 +1 x21 +1 x22 +1 x11 +1 x29 +1 x30 +1 x13 >= 1 ;
+1 x4 +1 x1 +1 x13 +1 x16 +1 x25 >= 1 ;
+1 x4 +1 x20 +1 x10 +1 x23 +1 x12 +1 x22 +1 x28 +1 x11 +1 x29 +1 x19 +1 x13 >= 1 ;
+1 x18 +1 x17 +1 x31 +1 x7 +1 x25 +1 x14 +1 x27 +1 x24 +1 x15 +1 x8 >= 1 ;
+1 x6 +1 x23 +1 x17 +1 x26 +1 x31 +1 x16 +1 x7 +1 x14 +1 x24 +1 x15 +1 x30 >= 1 ;
+1 x14 +1 x17 +1 x5 +1 x26 +1 x7 >= 1 ;
+1 x14 +1 x4 +1 x11 +1 x21 +1 x24 +1 x30 >= 1 ;
+1 x10 +1 x20 +1 x12 +1 x21 +1 x22 +1 x11 +1 x29 >= 1 ;
+1 x4 +1 x5 +1 x3 +1 x7 +1 x14 +1 x9 +1 x2 +1 x8 +1 x15 +1 x13 >= 1 ;
+1 x10 +1 x20 +1 x12 +1 x31 +1 x21 +1 x22 +1 x11 +1 x27 +1 x30 +1 x28 +1 x32 >= 1 ;
+1 x21 +1 x23 +1 x20 +1 x31 +1 x24 +1 x28 >= 1 ;
+1 x20 +1 x10 +1 x17 +1 x2 +1 x28 +1 x7 >= 1 ;
+1 x18 +1 x23 +1 x17 +1 x26 +1 x25 +1 x14 +1 x27 +1 x24 +1 x30 +1 x28 +1 x32 >= 1 ;
+1 x16 +1 x26 +1 x28 +1 x19 +1 x7 >= 1 ;
+1 x4 +1 x6 +1 x12 +1 x5 +1 x7 +1 x11 +1 x9 +1 x2 +1 x8 +1 x13 >= 1 ;
+1 x14 +1 x12 +1 x31 +1 x29 +1 x13 +1 x32 >= 1 ;
+1 x18 +1 x10 +1 x17 +1 x26 +1 x3 +1 x16 +1 x7 +1 x9 +1 x27 +1 x2 +1 x19 >= 1 ;
+1 x18 +1 x6 +1 x20 +1 x10 +1 x17 +1 x16 +1 x7 +1 x9 +1 x2 +1 x19 +1 x28 >= 1 ;
+1 x4 +1 x6 +1 x5 +1 x3 +1 x1 +1 x2 >= 1 ;
+1 x20 +1 x26 +1 x31 +1 x21 +1 x22 +1 x25 +1 x27 +1 x29 +1 x24 +1 x28 >= 1 ;
+1 x14 +1 x29 +1 x32 +1 x22 +1 x25 >= 1 ;
+1 x20 +1 x23 +1 x12 +1 x21 +1 x28 +1 x14 +1 x29 +1 x24 +1 x13 +1 x32 >= 1 ;
+1 x23 +1 x10 +1 x3 +1 x22 +1 x13 >= 1 ;
+1 x20 +1 x10 +1 x17 +1 x26 +1 x31 +1 x9 +1 x27 +1 x8 +1 x19 +1 x32 >= 1 ;
+1 x18 +1 x10 +1 x30 +1 x21 +1 x22 +1 x9 +1 x29 +1 x8 +1 x19 +1 x32 >= 1 ;
+1 x6 +1 x10 +1 x5 +1 x3 +1 x1 +1 x16 +1 x7 +1 x9 +1 x8 +1 x15 +1 x19 >= 1 ;
+1 x6 +1 x17 +1 x31 +1 x16 +1 x7 +1 x27 +1 x24 +1 x15 +1 x30 +1 x32 >= 1 ;
+1 x23 +1 x20 +1 x10 +1 x12 +1 x22 +1 x19 +1 x30 +1 x28 >= 1 ;
+1 x6 +1 x10 +1 x1 +1 x19 +1 x7 >= 1 ;
+1 x18 +1 x17 +1 x31 +1 x16 +1 x25 +1 x7 +1 x24 +1 x8 +1 x30 +1 x32 >= 1 ;
+1 x6 +1 x17 +1 x26 +1 x7 +1 x16 +1 x25 +1 x15 >= 1 ;
+1 x23 +1 x12 +1 x21 +1 x22 +1 x29 +1 x30 >= 1 ;
+1 x23 +1 x12 +1 x26 +1 x31 +1 x22 +1 x16 +1 x25 +1 x15 +1 x30 +1 x13 >= 1 ;
+1 x12 +1 x5 +1 x15 +1 x22 +1 x30 +1 x25 >= 1 ;
+1 x6 +1 x26 +1 x31 +1 x7 +1 x25 +1 x27 +1 x2 +1 x8 >= 1 ;
+1 x20 +1 x10 +1 x21 +1 x29 +1 x19 +1 x28 >= 1 ;
+1 x20 +1 x27 +1 x31 +1 x21 +1 x22 >= 1 ;
+1 x9 +1 x2 +1 x12 +1 x21 +1 x1 >= 1 ;
+1 x12 +1 x31 +1 x21 +1 x22 +1 x25 +1 x14 +1 x29 +1 x24 >= 1 ;
+1 x23 +1 x12 +1 x31 +1 x21 +1 x22 +1 x27 +1 x28 +1 x32 >= 1 ;
+1 x20 +1 x17 +1 x26 +1 x16 +1 x7 +1 x29 +1 x8 +1 x19 +1 x28 +1 x32 >= 1 ;
+1 x18 +1 x9 +1 x6 +1 x19 +1 x16 >= 1 ;
+1 x14 +1 x11 +1 x23 +1 x3 +1 x1 >= 1 ;
+1 x4 +1 x6 +1 x23 +1 x12 +1 x5 +1 x1 +1 x22 +1 x24 +1 x15 +1 x30 >= 1 ;
+1 x23 +1 x12 +1 x26 +1 x31 +1 x21 +1 x22 +1 x25 +1 x27 +1 x29 +1 x24 +1 x32 >= 1 ;
+1 x18 +1 x6 +1 x17 +1 x3 +1 x1 +1 x7 +1 x9 +1 x27 +1 x2 +1 x19 +1 x28 >= 1 ;
+1 x4 +1 x9 +1 x20 +1 x12 +1 x19 >= 1 ;
+1 x16 +1 x31 +1 x8 +1 x28 +1 x7 +1 x32 >= 1 ;
+1 x18 +1 x20 +1 x27 +1 x29 +1 x19 +1 x28 +1 x32 >= 1 ;
+1 x9 +1 x12 +1 x29 +1 x3 +1 x22 +1 x19 >= 1 ;
+1 x4 +1 x6 +1 x10 +1 x5 +1 x3 +1 x16 +1 x7 +1 x11 +1 x9 +1 x15 >= 1 ;
+1 x10 +1 x5 +1 x21 +1 x1 +1 x13 >= 1 ;
+1 x23 +1 x17 +1 x26 +1 x22 +1 x16 +1 x25 +1 x27 +1 x29 +1 x24 +1 x30 +1 x32 >= 1 ;
+1 x23 +1 x5 +1 x25 +1 x14 +1 x24 +1 x15 +1 x13 >= 1 ;
+1 x18 +1 x10 +1 x20 +1 x17 +1 x3 +1 x21 +1 x7 +1 x11 +1 x2 +1 x8 >= 1 ;
+1 x18 +1 x10 +1 x17 +1 x3 +1 x7 >= 1 ;
+1 x18 +1 x20 +1 x10 +1 x17 +1 x26 +1 x31 +1 x21 +1 x27 +1 x29 +1 x19 +1 x32 >= 1 ;
+1 x23 +1 x16 +1 x5 +1 x26 +1 x13 +1 x31 >= 1 ;
+1 x12 +1 x5 +1 x21 +1 x22 +1 x25 +1 x14 +1 x29 +1 x24 +1 x15 +1 x30 +1 x13 >= 1 ;
+1 x23 +1 x27 +1 x24 +1 x22 +1 x28 >= 1 ;
+1 x10 +1 x20 +1 x3 +1 x21 +1 x11 +1 x9 +1 x19 >= 1 ;
+1 x17 +1 x26 +1 x3 +1 x1 +1 x16 +1 x25 +1 x9 +1 x2 +1 x8 +1 x15 >= 1 ;
+1 x18 +1 x20 +1 x2 +1 x3 +1 x28 >= 1 ;
+1 x6 +1 x10 +1 x12 +1 x5 +1 x3 +1 x1 +1 x21 +1 x14 +1 x11 +1 x15 +1 x13 >= 1 ;
+1 x4 +1 x6 +1 x10 +1 x12 +1 x21 +1 x1 +1 x7 +1 x11 +1 x9 +1 x2 +1 x8 >= 1 ;
+1 x18 +1 x11 +1 x21 +1 x3 +1 x8 +1 x28 >= 1 ;
+1 x18 +1 x10 +1 x3 +1 x21 +1 x11 +1 x9 +1 x27 +1 x29 +1 x28 +1 x32 >= 1 ;
+1 x4 +1 x12 +1 x21 +1 x11 +1 x9 +1 x2 +1 x8 +1 x19 >= 1 ;
+1 x18 +1 x12 +1 x21 +1 x22 +1 x11 +1 x9 +1 x29 +1 x8 +1 x19 +1 x28 >= 1 ;
+1 x4 +1 x11 +1 x29 +1 x30 +1 x13 >= 1 ;
+1 x5 +1 x31 +1 x15 +1 x30 +1 x13 >= 1 ;
+1 x31 +1 x27 +1 x29 +1 x30 +1 x28 +1 x32 >= 1 ;
+1 x26 +1 x24 +1 x29 +1 x28 +1 x25 >= 1 ;
+1 x9 +1 x17 +1 x3 +1 x1 +1 x16 >= 1 ;
+1 x4 +1 x23 +1 x10 +1 x3 +1 x22 +1 x11 +1 x29 +1 x30 >= 1 ;
+1 x4 +1 x20 +1 x29 +1 x3 +1 x22 >= 1 ;
+1 x23 +1 x25 +1 x14 +1 x27 +1 x29 +1 x24 +1 x28 +1 x32 >= 1 ;
+1 x18 +1 x6 +1 x17 +1 x5 +1 x26 +1 x7 +1 x25 +1 x14 +1 x27 +1 x8 +1 x15 >= 1 ;
+1 x14 +1 x11 +1 x5 +1 x21 +1 x22 >= 1 ;
+1 x18 +1 x6 +1 x26 +1 x16 +1 x7 +1 x25 +1 x27 +1 x8 +1 x15 +1 x19 +1 x28 >= 1 ;
+1 x4 +1 x12 +1 x5 +1 x3 +1 x1 +1 x11 +1 x13 >= 1 ;
+1 x31 +1 x26 +1 x16 +1 x25 +1 x14 +1 x24 +1 x15 >= 1 ;
+1 x6 +1 x10 +1 x17 +1 x3 +1 x7 +1 x16 +1 x9 +1 x19 >= 1 ;
+1 x11 +1 x12 +1 x22 +1 x19 +1 x28 >= 1 ;
+1 x6 +1 x23 +1 x5 +1 x31 +1 x16 +1 x24 +1 x15 +1 x30 >= 1 ;
+1 x18 +1 x6 +1 x31 +1 x16 +1 x7 +1 x25 +1 x27 +1 x15 +1 x28 +1 x32 >= 1 ;
+1 x20 +1 x10 +1 x17 +1 x26 +1 x16 +1 x7 +1 x9 +1 x27 +1 x19 +1 x28 >= 1 ;
+1 x4 +1 x5 +1 x24 +1 x22 +1 x30 >= 1 ;
+1 x18 +1 x31 +1 x8 +1 x7 +1 x25 >= 1 ;
+1 x23 +1 x10 +1 x20 +1 x12 +1 x31 +1 x21 +1 x11 +1 x24 +1 x30 +1 x32 >= 1 ;
+1 x6 +1 x5 +1 x26 +1 x31 +1 x1 +1 x7 +1 x25 +1 x14 +1 x2 +1 x24 >= 1 ;
+1 x4 +1 x17 +1 x5 +1 x26 +1 x1 +1 x16 +1 x7 +1 x14 +1 x25 +1 x13 >= 1 ;
+1 x24 +1 x12 +1 x31 +1 x21 +1 x32 >= 1 ;
+1 x9 +1 x10 +1 x12 +1 x2 +1 x5 +1 x13 >= 1 ;
+1 x14 +1 x2 +1 x3 +1 x15 +1 x13 >= 1 ;
+1 x4 +1 x17 +1 x5 +1 x1 +1 x16 +1 x7 +1 x14 +1 x2 +1 x8 +1 x15 +1 x13 >= 1 ;
+1 x4 +1 x10 +1 x20 +1 x5 +1 x21 +1 x3 +1 x22 +1 x1 +1 x29 +1 x13 >= 1 ;
+1 x23 +1 x5 +1 x26 +1 x31 +1 x14 +1 x27 +1 x15 +1 x30 +1 x13 +1 x32 >= 1 ;
+1 x4 +1 x10 +1 x12 +1 x3 +1 x21 +1 x11 >= 1 ;
+1 x23 +1 x17 +1 x5 +1 x26 +1 x31 +1 x16 +1 x14 +1 x27 +1 x24 +1 x15 +1 x13 >= 1 ;
+1 x4 +1 x12 +1 x31 +1 x21 +1 x22 +1 x25 +1 x14 +1 x11 +1 x24 +1 x30 +1 x13 >= 1 ;
+1 x4 +1 x10 +1 x12 +1 x5 +1 x1 +1 x11 +1 x9 +1 x2 +1 x8 +1 x19 +1 x13 >= 1 ;
+1 x4 +1 x23 +1 x12 +1 x5 +1 x26 +1 x31 +1 x16 +1 x25 +1 x24 +1 x15 +1 x13 >= 1 ;
+1 x4 +1 x20 +1 x12 +1 x3 +1 x11 +1 x29 +1 x19 +1 x28 >= 1 ;
+1 x9 +1 x10 +1 x27 +1 x29 +1 x8 +1 x32 >= 1 ;
+1 x4 +1 x6 +1 x12 +1 x3 +1 x1 +1 x16 +1 x25 +1 x14 +1 x11 +1 x15 +1 x13 >= 1 ;
+1 x18 +1 x6 +1 x17 +1 x5 +1 x26 +1 x1 +1 x27 +1 x2 +1 x8 +1 x15 >= 1 ;
+1 x4 +1 x11 +1 x6 +1 x10 +1 x8 +1 x7 >= 1 ;
+1 x4 +1 x3 +1 x1 +1 x16 +1 x25 +1 x14 +1 x2 +1 x15 >= 1 ;
+1 x18 +1 x20 +1 x19 +1 x31 +1 x30 >= 1 ;
+1 x4 +1 x6 +1 x23 +1 x12 +1 x16 +1 x25 +1 x15 +1 x13 >= 1 ;
+1 x23 +1 x10 +1 x20 +1 x12 +1 x30 +1 x3 +1 x22 +1 x11 +1 x9 +1 x29 +1 x19 >= 1 ;
+1 x9 +1 x27 +1 x2 +1 x28 +1 x7 >= 1 ;
+1 x14 +1 x4 +1 x7 +1 x2 +1 x16 +1 x13 >= 1 ;
+1 x6 +1 x17 +1 x5 +1 x26 +1 x31 +1 x1 +1 x7 +1 x25 +1 x27 +1 x2 +1 x15 >= 1 ;
+1 x18 +1 x17 +1 x31 +1 x30 +1 x29 +1 x8 +1 x19 +1 x32 >= 1 ;
+1 x18 +1 x9 +1 x29 +1 x21 +1 x8 >= 1 ;
+1 x18 +1 x4 +1 x20 +1 x3 +1 x1 +1 x11 +1 x2 +1 x8 +1 x19 +1 x28 >= 1 ;
+1 x18 +1 x6 +1 x26 +1 x16 +1 x25 +1 x9 +1 x2 +1 x8 +1 x15 +1 x19 >= 1 ;
+1 x23 +1 x26 +1 x15 +1 x30 +1 x16 >= 1 ;
+1 x18 +1 x4 +1 x6 +1 x17 +1 x5 +1 x3 +1 x1 +1 x7 +1 x9 +1 x8 +1 x19 >= 1 ;
+1 x4 +1 x17 +1 x5 +1 x26 +1 x3 +1 x1 +1 x16 +1 x7 +1 x25 +1 x2 +1 x15 >= 1 ;
+1 x4 +1 x6 +1 x10 +1 x5 +1 x1 +1 x9 +1 x8 +1 x19 >= 1 ;
+1 x5 +1 x31 +1 x22 +1 x25 +1 x14 +1 x29 +1 x15 +1 x30 +1 x13 +1 x32 >= 1 ;
+1 x4 +1 x6 +1 x5 +1 x26 +1 x31 +1 x1 +1 x16 +1 x25 +1 x24 +1 x13 >= 1 ;
+1 x20 +1 x17 +1 x29 +1 x8 +1 x32 >= 1 ;
+1 x4 +1 x20 +1 x2 +1 x21 +1 x1 +1 x19 >= 1 ;
+1 x4 +1 x7 +1 x3 +1 x15 +1 x16 >= 1 ;
+1 x18 +1 x6 +1 x26 +1 x31 +1 x16 +1 x7 +1 x27 +1 x2 +1 x8 +1 x28 +1 x32 >= 1 ;
+1 x6 +1 x23 +1 x12 +1 x5 +1 x22 +1 x16 +1 x25 +1 x24 +1 x15 +1 x30 +1 x13 >= 1 ;
+1 x14 +1 x27 +1 x15 +1 x30 +1 x16 +1 x32 >= 1 ;
+1 x6 +1 x23 +1 x12 +1 x3 +1 x1 +1 x14 +1 x2 +1 x13 >= 1 ;
+1 x10 +1 x30 +1 x22 +1 x19 +1 x32 >= 1 ;
+1 x20 +1 x3 +1 x21 +1 x9 +1 x2 +1 x29 +1 x8 +1 x28 >= 1 ;
+1 x14 +1 x11 +1 x6 +1 x12 +1 x3 +1 x15 >= 1 ;
+1 x26 +1 x31 +1 x7 +1 x9 +1 x27 +1 x2 +1 x8 +1 x19 +1 x28 +1 x32 >= 1 ;
+1 x6 +1 x5 +1 x26 +1 x31 +1 x16 +1 x14 +1 x27 +1 x24 +1 x15 +1 x30 +1 x32 >= 1 ;
+1 x17 +1 x24 +1 x30 +1 x16 +1 x32 >= 1 ;
+1 x4 +1 x6 +1 x5 +1 x1 +1 x14 +1 x15 +1 x13 >= 1 ;
+1 x17 +1 x26 +1 x16 +1 x25 +1 x29 +1 x30 +1 x28 +1 x32 >= 1 ;
+1 x18 +1 x17 +1 x24 +1 x30 +1 x28 +1 x25 >= 1 ;
+1 x5 +1 x3 +1 x1 +1 x16 +1 x25 +1 x14 +1 x7 +1 x9 +1 x2 +1 x8 +1 x15 >= 1 ;
+1 x18 +1 x20 +1 x10 +1 x3 +1 x9 +1 x27 +1 x2 +1 x29 +1 x8 +1 x28 +1 x32 >= 1 ;
+1 x4 +1 x12 +1 x31 +1 x21 +1 x11 +1 x29 +1 x24 +1 x30 +1 x13 +1 x32 >= 1 ;
+1 x14 +1 x23 +1 x27 +1 x26 +1 x32 >= 1 ;
+1 x18 +1 x25 +1 x28 +1 x16 +1 x32 >= 1 ;
+1 x20 +1 x21 +1 x22 +1 x29 +1 x30 +1 x28 +1 x32 >= 1 ;
+1 x4 +1 x10 +1 x20 +1 x23 +1 x29 +1 x13 >= 1 ;
+1 x18 +1 x17 +1 x16 +1 x25 +1 x14 +1 x27 +1 x24 +1 x15 +1 x28 +1 x32 >= 1 ;
+1 x18 +1 x30 +1 x17 +1 x26 +1 x29 >= 1 ;
+1 x18 +1 x23 +1 x17 +1 x26 +1 x22 +1 x27 +1 x29 +1 x24 +1 x30 +1 x28 >= 1 ;
+1 x18 +1 x6 +1 x27 +1 x2 +1 x26 >= 1 ;
+1 x23 +1 x27 +1 x26 +1 x22 +1 x29 +1 x25 >= 1 ;
+1 x23 +1 x12 +1 x26 +1 x31 +1 x22 +1 x25 +1 x14 +1 x27 +1 x13 +1 x32 >= 1 ;
+1 x10 +1 x30 +1 x3 +1 x22 +1 x11 +1 x9 +1 x29 +1 x19 +1 x28 +1 x32 >= 1 ;
+1 x6 +1 x23 +1 x1 +1 x16 +1 x25 +1 x14 +1 x7 +1 x2 +1 x24 +1 x13 >= 1 ;
+1 x6 +1 x10 +1 x20 +1 x21 +1 x1 +1 x7 +1 x11 +1 x2 +1 x8 +1 x19 >= 1 ;
+1 x18 +1 x20 +1 x10 +1 x17 +1 x21 +1 x7 +1 x9 +1 x2 +1 x29 +1 x8 +1 x28 >= 1 ;
+1 x17 +1 x5 +1 x7 +1 x25 +1 x14 +1 x2 +1 x8 +1 x15 >= 1 ;
+1 x20 +1 x23 +1 x31 +1 x21 +1 x22 +1 x25 +1 x14 +1 x29 +1 x24 +1 x28 +1 x32 >= 1 ;
+1 x12 +1 x31 +1 x22 +1 x13 +1 x25 >= 1 ;
+1 x11 +1 x6 +1 x2 +1 x12 +1 x13 >= 1 ;
+1 x4 +1 x6 +1 x10 +1 x20 +1 x5 +1 x21 +1 x1 +1 x11 +1 x9 +1 x2 +1 x19 >= 1 ;
+1 x2 +1 x26 +1 x8 +1 x15 +1 x25 >= 1 ;
+1 x11 +1 x10 +1 x12 +1 x30 +1 x28 +1 x32 >= 1 ;
+1 x26 +1 x16 +1 x25 +1 x14 +1 x27 +1 x29 +1 x24 +1 x15 +1 x30 +1 x28 +1 x32 >= 1 ;
+1 x18 +1 x20 +1 x26 +1 x31 +1 x30 +1 x25 +1 x29 +1 x24 +1 x19 +1 x28 >= 1 ;
+1 x4 +1 x12 +1 x5 +1 x31 +1 x22 +1 x14 +1 x29 +1 x24 +1 x30 +1 x13 +1 x32 >= 1 ;
+1 x18 +1 x26 +1 x31 +1 x16 +1 x25 +1 x7 +1 x9 +1 x27 +1 x2 +1 x8 +1 x19 >= 1 ;
+1 x18 +1 x6 +1 x20 +1 x10 +1 x3 +1 x1 +1 x7 +1 x2 +1 x19 +1 x28 >= 1 ;
+1 x10 +1 x3 +1 x9 +1 x2 +1 x8 +1 x19 >= 1 ;
+1 x6 +1 x5 +1 x16 +1 x25 +1 x14 +1 x15 >= 1 ;
+1 x6 +1 x10 +1 x5 +1 x3 +1 x14 +1 x11 +1 x9 +1 x2 +1 x15 +1 x13 >= 1 ;
+1 x11 +1 x20 +1 x2 +1 x21 +1 x8 >= 1 ;
+1 x18 +1 x23 +1 x20 +1 x31 +1 x22 +1 x27 +1 x30 +1 x24 +1 x19 +1 x28 >= 1 ;
+1 x23 +1 x12 +1 x31 +1 x22 +1 x28 +1 x14 +1 x27 +1 x29 +1 x24 +1 x13 +1 x32 >= 1 ;
+1 x4 +1 x20 +1 x3 +1 x1 +1 x21 +1 x11 +1 x9 +1 x2 +1 x29 +1 x19 +1 x28 >= 1 ;
+1 x23 +1 x31 +1 x22 +1 x29 +1 x24 +1 x30 +1 x32 >= 1 ;
+1 x2 +1 x17 +1 x5 +1 x26 +1 x1 +1 x25 >= 1 ;
+1 x18 +1 x10 +1 x20 +1 x17 +1 x3 +1 x21 +1 x11 +1 x9 +1 x27 +1 x8 +1 x28 >= 1 ;
+1 x18 +1 x4 +1 x20 +1 x12 +1 x3 +1 x21 +1 x11 +1 x9 +1 x8 +1 x19 +1 x28 >= 1 ;
+1 x17 +1 x31 +1 x26 +1 x16 +1 x25 +1 x27 >= 1 ;
-1 x1 -1 x2 -1 x3 -1 x4 -1 x5 -1 x6 -1 x7 -1 x8 -1 x9 -1 x10 -1 x11 -1 x12 -1 x13 -1 x14 -1 x15 -1 x16 -1 x17 -1 x18 -1 x19 -1 x20 -1 x21 -1 x22 -1 x23 -1 x24 -1 x25 -1 x26 -1 x27 -1 x28 -1 x29 -1 x30 -1 x31 -1 x32 >= -10 ;
+1 x1 = 0 ;
+1 x10 = 0 ;
+1 x11 = 0 ;
+1 x13 = 0 ;
+1 x15 = 0 ;
+1 x16 = 0 ;
+1 x18 = 0 ;
+1 x2 = 0 ;
+1 x20 = 0 ;
+1 x21 = 0 ;
+1 x22 = 0 ;
+1 x24 = 0 ;
+1 x25 = 0 ;
+1 x26 = 0 ;
+1 x29 = 0 ;
+1 x3 = 0 ;
+1 x30 = 0 ;
+1 x31 = 0 ;
+1 x32 = 0 ;
+1 x6 = 0 ;
+1 x7 = 0 ;
+1 x9 = 0 ;
+1 x12 = 1 ;
+1 x14 = 1 ;
+1 x17 = 1 ;
+1 x19 = 1 ;
+1 x23 = 1 ;
+1 x27 = 1 ;
+1 x28 = 1 ;
+1 x4 = 1 ;
+1 x5 = 1 ;
+1 x8 = 1 ;